W=8;
H=5;

MAX_TIME=21;
MAX_TRACKS=22;

TARGET=(3,8);

TRAINS=[(4,2,TOP),(2,5,DOWN),(2,3,DOWN),(4,4,TOP)];
DECOYS=[];

INIT_POS=[
(1,6,ROCK),
(2,3,STRAIGHT_TD),
(2,5,STRAIGHT_TD),
(3,7,STRAIGHT_RL),
(3,8,STRAIGHT_RL),
(4,2,STRAIGHT_TD),
(4,4,STRAIGHT_TD),
];
TUNNEL_PAIRS=[];

GATES=[];
ACTIVATIONS=[];

DSWITCHES=[];
STATIONS=[];
